c 1 Ball
c 2 NormalOutfit
c 3 Character
c 4 Frog
c 5 Koala
c 6 YellowSweater
c 7 Jeans
c 8 Balloon
c 9 BrownPant
c 10 BottomClothing
c 11 Costume
c 12 Clothes
c 13 Objects
c 14 TopClothing
c 15 RedSweater
c 16 __Root__
p cnf 16 43
16 0
16 -1 0
16 -15 0
16 -6 0
16 -4 0
16 -12 0
16 -3 0
16 -9 0
16 -5 0
16 -2 0
16 -11 0
16 -7 0
16 -13 0
16 -10 0
16 -8 0
16 -14 0
-11 -2 0
-1 13 0
-13 1 8 0
-2 12 0
3 0
-6 14 0
-11 12 0
-7 10 0
-5 11 0
-10 9 7 0
-12 3 0
-5 -4 0
-2 10 0
-4 11 0
-12 2 11 0
-13 3 0
-6 -15 0
-11 4 5 0
-10 2 0
-3 12 0
-15 14 0
-2 14 0
-14 15 6 0
-8 13 0
-7 -9 0
-9 10 0
-14 2 0
